15	4	2
1799	1799	1799	1799	
640	771	838	
111	50	52	
245	428	466	
124	553	588	
1	902	944	
330	47	47	
685	6	6	
740	852	856	
354	603	609	
874	549	599	
695	231	250	
894	321	348	
612	765	837	
312	442	471	
540	678	710	
